Version identifier: 22.1.0.0 | 2022-03-09 | 1a383f8ce
CPXPARAM_Threads                                 1
CPXPARAM_MIP_Strategy_VariableSelect             3
CPXPARAM_TimeLimit                               599.99540676799995
Found incumbent of value 0.000000 after 0.00 sec. (0.60 ticks)

Root node processing (before b&c):
  Real time             =    0.00 sec. (0.69 ticks)
Sequential b&c:
  Real time             =    0.00 sec. (0.00 ticks)
                          ------------
Total (root+branch&cut) =    0.00 sec. (0.69 ticks)
Version identifier: 22.1.0.0 | 2022-03-09 | 1a383f8ce
CPXPARAM_Threads                                 1
CPXPARAM_MIP_Strategy_VariableSelect             3
CPXPARAM_TimeLimit                               599.96421669899996
Tried aggregator 1 time.
MIP Presolve eliminated 16 rows and 0 columns.
Reduced MIP has 3388 rows, 7520 columns, and 65900 nonzeros.
Reduced MIP has 7520 binaries, 0 generals, 0 SOSs, and 0 indicators.
Presolve time = 0.04 sec. (31.91 ticks)
Probing time = 0.01 sec. (3.88 ticks)
Tried aggregator 1 time.
Detecting symmetries...
Reduced MIP has 3388 rows, 7520 columns, and 65900 nonzeros.
Reduced MIP has 7520 binaries, 0 generals, 0 SOSs, and 0 indicators.
Presolve time = 0.05 sec. (40.21 ticks)
Probing time = 0.01 sec. (3.88 ticks)
Clique table members: 2621.
MIP emphasis: balance optimality and feasibility.
MIP search method: dynamic search.
Parallel mode: none, using 1 thread.
Root relaxation solution time = 0.25 sec. (220.33 ticks)

        Nodes                                         Cuts/
   Node  Left     Objective  IInf  Best Integer    Best Bound    ItCnt     Gap

      0     0        0.0000  1094                      0.0000     1956         
*     0+    0                            0.0000        0.0000             0.00%
      0     0        cutoff              0.0000        0.0000     1956    0.00%
Elapsed time = 1.28 sec. (1020.92 ticks, tree = 0.01 MB, solutions = 1)

Root node processing (before b&c):
  Real time             =    1.28 sec. (1021.15 ticks)
Sequential b&c:
  Real time             =    0.00 sec. (0.00 ticks)
                          ------------
Total (root+branch&cut) =    1.28 sec. (1021.15 ticks)
Version identifier: 22.1.0.0 | 2022-03-09 | 1a383f8ce
CPXPARAM_Threads                                 1
CPXPARAM_MIP_Strategy_VariableSelect             3
CPXPARAM_TimeLimit                               598.64376778799999
Tried aggregator 1 time.
MIP Presolve eliminated 16 rows and 0 columns.
Reduced MIP has 3946 rows, 8760 columns, and 76812 nonzeros.
Reduced MIP has 8760 binaries, 0 generals, 0 SOSs, and 0 indicators.
Presolve time = 0.05 sec. (37.13 ticks)
Probing time = 0.01 sec. (4.15 ticks)
Tried aggregator 1 time.
Detecting symmetries...
Reduced MIP has 3946 rows, 8760 columns, and 76812 nonzeros.
Reduced MIP has 8760 binaries, 0 generals, 0 SOSs, and 0 indicators.
Presolve time = 0.06 sec. (46.83 ticks)
Probing time = 0.01 sec. (4.15 ticks)
Clique table members: 3055.
MIP emphasis: balance optimality and feasibility.
MIP search method: dynamic search.
Parallel mode: none, using 1 thread.
Root relaxation solution time = 0.32 sec. (272.70 ticks)

        Nodes                                         Cuts/
   Node  Left     Objective  IInf  Best Integer    Best Bound    ItCnt     Gap

      0     0        0.0000  1172                      0.0000     2601         
*     0+    0                            0.0000        0.0000             0.00%
      0     0        cutoff              0.0000        0.0000     2601    0.00%
Elapsed time = 2.62 sec. (2238.46 ticks, tree = 0.01 MB, solutions = 1)

Root node processing (before b&c):
  Real time             =    2.62 sec. (2238.73 ticks)
Sequential b&c:
  Real time             =    0.00 sec. (0.00 ticks)
                          ------------
Total (root+branch&cut) =    2.62 sec. (2238.73 ticks)
Version identifier: 22.1.0.0 | 2022-03-09 | 1a383f8ce
CPXPARAM_Threads                                 1
CPXPARAM_MIP_Strategy_VariableSelect             3
CPXPARAM_TimeLimit                               595.97673388500004
Tried aggregator 1 time.
MIP Presolve eliminated 16 rows and 0 columns.
Reduced MIP has 4225 rows, 9380 columns, and 82268 nonzeros.
Reduced MIP has 9380 binaries, 0 generals, 0 SOSs, and 0 indicators.
Presolve time = 0.05 sec. (39.66 ticks)
Probing time = 0.01 sec. (4.28 ticks)
Tried aggregator 1 time.
Detecting symmetries...
Reduced MIP has 4225 rows, 9380 columns, and 82268 nonzeros.
Reduced MIP has 9380 binaries, 0 generals, 0 SOSs, and 0 indicators.
Presolve time = 0.06 sec. (50.05 ticks)
Probing time = 0.01 sec. (4.28 ticks)
Clique table members: 3272.
MIP emphasis: balance optimality and feasibility.
MIP search method: dynamic search.
Parallel mode: none, using 1 thread.
Root relaxation solution time = 0.94 sec. (828.33 ticks)

        Nodes                                         Cuts/
   Node  Left     Objective  IInf  Best Integer    Best Bound    ItCnt     Gap

      0     0        0.0000  1639                      0.0000     4195         
*     0+    0                            0.0000        0.0000             0.00%
      0     0        cutoff              0.0000        0.0000     4195    0.00%
Elapsed time = 7.25 sec. (6185.71 ticks, tree = 0.01 MB, solutions = 1)

Root node processing (before b&c):
  Real time             =    7.25 sec. (6186.00 ticks)
Sequential b&c:
  Real time             =    0.00 sec. (0.00 ticks)
                          ------------
Total (root+branch&cut) =    7.25 sec. (6186.00 ticks)
Version identifier: 22.1.0.0 | 2022-03-09 | 1a383f8ce
CPXPARAM_Threads                                 1
CPXPARAM_MIP_Strategy_VariableSelect             3
CPXPARAM_TimeLimit                               588.67001171200002
Tried aggregator 1 time.
MIP Presolve eliminated 16 rows and 0 columns.
Reduced MIP has 4369 rows, 9700 columns, and 85084 nonzeros.
Reduced MIP has 9700 binaries, 0 generals, 0 SOSs, and 0 indicators.
Presolve time = 0.05 sec. (41.05 ticks)
Probing time = 0.01 sec. (4.35 ticks)
Tried aggregator 1 time.
Detecting symmetries...
Reduced MIP has 4369 rows, 9700 columns, and 85084 nonzeros.
Reduced MIP has 9700 binaries, 0 generals, 0 SOSs, and 0 indicators.
Presolve time = 0.06 sec. (51.80 ticks)
Probing time = 0.01 sec. (4.35 ticks)
Clique table members: 3384.
MIP emphasis: balance optimality and feasibility.
MIP search method: dynamic search.
Parallel mode: none, using 1 thread.
Root relaxation solution time = 1.84 sec. (1657.74 ticks)

        Nodes                                         Cuts/
   Node  Left     Objective  IInf  Best Integer    Best Bound    ItCnt     Gap

      0     0        0.0000  1943                      0.0000     6330         
      0     0        0.0000   248                  Cliques: 2     7088         
      0     0        0.0000   354                    Cuts: 77     7909         
*     0+    0                            0.0000        0.0000             0.00%
      0     0        cutoff              0.0000        0.0000     7909    0.00%
Elapsed time = 36.11 sec. (33987.03 ticks, tree = 0.01 MB, solutions = 1)

Clique cuts applied:  21
Zero-half cuts applied:  9
Gomory fractional cuts applied:  1

Root node processing (before b&c):
  Real time             =   36.12 sec. (33987.64 ticks)
Sequential b&c:
  Real time             =    0.00 sec. (0.00 ticks)
                          ------------
Total (root+branch&cut) =   36.12 sec. (33987.64 ticks)
Version identifier: 22.1.0.0 | 2022-03-09 | 1a383f8ce
CPXPARAM_Threads                                 1
CPXPARAM_MIP_Strategy_VariableSelect             3
CPXPARAM_TimeLimit                               552.49735058600004
Tried aggregator 1 time.
MIP Presolve eliminated 16 rows and 0 columns.
Reduced MIP has 4441 rows, 9860 columns, and 86492 nonzeros.
Reduced MIP has 9860 binaries, 0 generals, 0 SOSs, and 0 indicators.
Presolve time = 0.05 sec. (41.66 ticks)
Probing time = 0.01 sec. (4.38 ticks)
Tried aggregator 1 time.
Detecting symmetries...
Reduced MIP has 4441 rows, 9860 columns, and 86492 nonzeros.
Reduced MIP has 9860 binaries, 0 generals, 0 SOSs, and 0 indicators.
Presolve time = 0.06 sec. (52.59 ticks)
Probing time = 0.01 sec. (4.38 ticks)
Clique table members: 3440.
MIP emphasis: balance optimality and feasibility.
MIP search method: dynamic search.
Parallel mode: none, using 1 thread.
Root relaxation solution time = 2.66 sec. (2453.79 ticks)

        Nodes                                         Cuts/
   Node  Left     Objective  IInf  Best Integer    Best Bound    ItCnt     Gap

      0     0        0.0000  2129                      0.0000     7469         
*     0+    0                            0.0000        0.0000             0.00%
      0     0        cutoff              0.0000        0.0000     7469    0.00%
Elapsed time = 19.36 sec. (16718.90 ticks, tree = 0.01 MB, solutions = 1)

Root node processing (before b&c):
  Real time             =   19.36 sec. (16719.21 ticks)
Sequential b&c:
  Real time             =    0.00 sec. (0.00 ticks)
                          ------------
Total (root+branch&cut) =   19.36 sec. (16719.21 ticks)
Version identifier: 22.1.0.0 | 2022-03-09 | 1a383f8ce
CPXPARAM_Threads                                 1
CPXPARAM_MIP_Strategy_VariableSelect             3
CPXPARAM_TimeLimit                               533.07801323499996
Tried aggregator 1 time.
MIP Presolve eliminated 16 rows and 0 columns.
Reduced MIP has 4477 rows, 9940 columns, and 87196 nonzeros.
Reduced MIP has 9940 binaries, 0 generals, 0 SOSs, and 0 indicators.
Presolve time = 0.05 sec. (42.05 ticks)
Probing time = 0.01 sec. (4.40 ticks)
Tried aggregator 1 time.
Detecting symmetries...
Reduced MIP has 4477 rows, 9940 columns, and 87196 nonzeros.
Reduced MIP has 9940 binaries, 0 generals, 0 SOSs, and 0 indicators.
Presolve time = 0.06 sec. (53.07 ticks)
Probing time = 0.01 sec. (4.40 ticks)
Clique table members: 3468.
MIP emphasis: balance optimality and feasibility.
MIP search method: dynamic search.
Parallel mode: none, using 1 thread.
Root relaxation solution time = 2.91 sec. (2708.38 ticks)

        Nodes                                         Cuts/
   Node  Left     Objective  IInf  Best Integer    Best Bound    ItCnt     Gap

      0     0        0.0000  2184                      0.0000     8086         
*     0+    0                            0.0000        0.0000             0.00%
      0     0        cutoff              0.0000        0.0000     8086    0.00%
Elapsed time = 19.52 sec. (17229.37 ticks, tree = 0.01 MB, solutions = 1)

Root node processing (before b&c):
  Real time             =   19.52 sec. (17229.68 ticks)
Sequential b&c:
  Real time             =    0.00 sec. (0.00 ticks)
                          ------------
Total (root+branch&cut) =   19.52 sec. (17229.68 ticks)
Version identifier: 22.1.0.0 | 2022-03-09 | 1a383f8ce
CPXPARAM_Threads                                 1
CPXPARAM_MIP_Strategy_VariableSelect             3
CPXPARAM_TimeLimit                               513.50205481700004
Tried aggregator 1 time.
MIP Presolve eliminated 16 rows and 0 columns.
Reduced MIP has 4495 rows, 9980 columns, and 87548 nonzeros.
Reduced MIP has 9980 binaries, 0 generals, 0 SOSs, and 0 indicators.
Presolve time = 0.05 sec. (42.16 ticks)
Probing time = 0.01 sec. (4.40 ticks)
Tried aggregator 1 time.
Detecting symmetries...
Reduced MIP has 4495 rows, 9980 columns, and 87548 nonzeros.
Reduced MIP has 9980 binaries, 0 generals, 0 SOSs, and 0 indicators.
Presolve time = 0.06 sec. (53.23 ticks)
Probing time = 0.01 sec. (4.40 ticks)
Clique table members: 3482.
MIP emphasis: balance optimality and feasibility.
MIP search method: dynamic search.
Parallel mode: none, using 1 thread.
Root relaxation solution time = 4.23 sec. (3943.31 ticks)

        Nodes                                         Cuts/
   Node  Left     Objective  IInf  Best Integer    Best Bound    ItCnt     Gap

      0     0        0.0000  2227                      0.0000    10262         
*     0+    0                            0.0000        0.0000             0.00%
      0     0        cutoff              0.0000        0.0000    10262    0.00%
Elapsed time = 19.36 sec. (17639.28 ticks, tree = 0.01 MB, solutions = 1)

Root node processing (before b&c):
  Real time             =   19.36 sec. (17639.58 ticks)
Sequential b&c:
  Real time             =    0.00 sec. (0.00 ticks)
                          ------------
Total (root+branch&cut) =   19.36 sec. (17639.58 ticks)
Version identifier: 22.1.0.0 | 2022-03-09 | 1a383f8ce
CPXPARAM_Threads                                 1
CPXPARAM_MIP_Strategy_VariableSelect             3
CPXPARAM_TimeLimit                               494.08195949399999
Tried aggregator 1 time.
MIP Presolve eliminated 16 rows and 0 columns.
Reduced MIP has 4504 rows, 10000 columns, and 87724 nonzeros.
Reduced MIP has 10000 binaries, 0 generals, 0 SOSs, and 0 indicators.
Presolve time = 0.05 sec. (42.30 ticks)
Probing time = 0.01 sec. (4.41 ticks)
Tried aggregator 1 time.
Detecting symmetries...
Reduced MIP has 4504 rows, 10000 columns, and 87724 nonzeros.
Reduced MIP has 10000 binaries, 0 generals, 0 SOSs, and 0 indicators.
Presolve time = 0.06 sec. (53.40 ticks)
Probing time = 0.01 sec. (4.41 ticks)
Clique table members: 3489.
MIP emphasis: balance optimality and feasibility.
MIP search method: dynamic search.
Parallel mode: none, using 1 thread.
Root relaxation solution time = 4.02 sec. (3757.73 ticks)

        Nodes                                         Cuts/
   Node  Left     Objective  IInf  Best Integer    Best Bound    ItCnt     Gap

      0     0        0.0000  2260                      0.0000     9815         
      0     0        0.0000   467                    Cuts: 29    14473         
*     0+    0                            0.0000        0.0000             0.00%
      0     0        cutoff              0.0000        0.0000    14473    0.00%
Elapsed time = 48.70 sec. (44162.55 ticks, tree = 0.01 MB, solutions = 1)

Clique cuts applied:  22

Root node processing (before b&c):
  Real time             =   48.70 sec. (44162.86 ticks)
Sequential b&c:
  Real time             =    0.00 sec. (0.00 ticks)
                          ------------
Total (root+branch&cut) =   48.70 sec. (44162.86 ticks)
Primal:	500
Dual:	500
Status:	Optimal
Time:	154.668
Sequence:
	18
	2
	3
	18
	3
	2
	18
	4
	5
	8
	7
	13
	8
	14
	13
	8
	16
	13
	8
	16
	13
	17
	14
	6
	17
	4
	7
	17
	3
	4
	18
	2
	3
	18
	2
	3
	18
	2
	4
	10
	12
	5
	19
	12
	16
	1
	12
	7
	19
	12
	7
	19
	2
	0
	10
	13
	12
	1
	7
	12
	1
	16
	12
	19
	14
	12
	19
	16
	12
	19
	7
	12
	1
	16
	13
	8
	16
	3
	17
	7
	13
	17
	7
	5
	8
	16
	4
	8
	16
	4
	17
	7
	4
	17
	7
	5
	8
	16
	13
	17
	7
	13
	8
	7
	5
	8
	7
	13
	17
	7
	3
	17
	7
	4
	17
	7
	13
	8
	14
	3
	8
	5
	3
	18
	2
	4
	18
	2
	4
	18
	2
	4
	18
	2
	4
	1
	12
	13
	10
	0
	13
	10
	12
	5
	7
	8
	4
	14
	17
	3
	16
	8
	5
	14
	9
	6
	11
	9
	4
	11
	9
	13
	11
	9
	5
	14
	17
	13
	16
	8
	6
	7
	17
	13
	14
	17
	4
	16
	8
	6
	14
	8
	5
	7
	17
	13
	5
	8
	16
	6
	17
	7
	6
	17
	14
	3
	17
	3
	4
	18
	2
	4
	18
	3
	2
	18
	3
	2
	18
	4
	2
	18
	4
	2
	18
	4
	2
	18
	4
	3
	17
	14
	5
	8
	14
	5
	8
	16
	3
	8
	6
	14
	17
	13
	7
	8
	6
	16
	8
	6
	16
	8
	4
	14
	8
	5
	14
	8
	5
	7
	9
	0
	16
	9
	0
	5
	9
	7
	0
	9
	16
	3
	8
	16
	13
	17
	7
	6
	17
	7
	6
	17
	14
	13
	8
	7
	5
	8
	16
	3
	8
	5
	3
	18
	2
	4
	18
	2
	4
	11
	9
	4
	0
	19
	14
	12
	19
	16
	12
	1
	6
	11
	9
	13
	11
	9
	13
	11
	9
	3
	11
	1
	15
	11
	1
	2
	11
	19
	2
	0
	10
	15
	0
	10
	15
	0
	10
	2
	0
	10
	15
	0
	1
	15
	0
	10
	15
	0
	10
	15
	0
	10
	15
	0
	10
	15
	0
	10
	6
	12
	1
	14
	12
	6
	10
	0
	15
	10
	0
	15
	10
	0
	15
	1
	11
	15
	1
	16
	12
	19
	16
	12
	1
	16
	12
	19
	16
	12
	19
	14
	12
	1
	7
	6
	8
	14
	6
	1
	11
	15
	1
	11
	15
	1
	11
	15
	1
	11
	6
	9
	16
	0
	9
	14
	0
	9
	16
	0
	9
	14
	5
	9
	11
	13
	9
	11
	13
	9
	11
	4
	9
	11
	6
	9
	11
	13
	9
	11
	13
	1
	12
	14
	19
	12
	7
	19
	12
	7
	19
	12
	14
	19
	12
	4
	10
	15
	0
	10
	2
	13
	10
	12
	13
	14
	8
	5
	7
	19
	12
	16
	19
	12
	7
	1
	12
	4
	10
	0
	15
	1
	11
	15
	1
	11
	2
	19
	11
	2
	1
	11
	15
	1
	3
	11
	9
	13
	11
	9
	5
	7
	8
	13
	7
	8
	5
	14
	17
	4
	7
	17
